n = 11;
clue = [| 11,  8, 10,  2,  4,  5,  2,  6,  6,  3,  3
 | 11, 11,  5,  9,  1,  2,  8,  3,  5,  4,  6
 | 10,  4, 11,  7,  9,  7,  6, 11,  8,  3,  7
 |  8,  7,  9, 10, 11,  6,  9,  7,  9,  5, 10
 |  1,  9,  4, 11, 11, 10,  4,  5,  7,  6,  8
 |  3,  6,  8,  4, 10, 11,  3,  9,  4,  7,  4
 |  4,  5,  7,  6,  4,  7, 11,  2, 10,  8,  9
 |  5,  9,  6,  8,  7,  4, 10, 11,  2,  9,  2
 |  6,  6,  1,  7,  6,  8,  9,  6, 11,  1, 10
 |  2,  3,  4,  5,  6,  4,  7,  8,  9, 10, 11
 |  6, 11,  7,  3,  8,  9,  4, 10,  2, 11,  5
 |];
